(set-info :smt-lib-version 2.6)
(set-info :category "crafted")
(set-logic QF_FF)
(define-sort FF0 () (_ FiniteField 52435875175126190479447740508185965837690552500527637822603658699938581184513))
(declare-fun e () Bool)
(declare-fun c () Bool)
(declare-fun d () Bool)
(declare-fun a () Bool)
(declare-fun b () Bool)
(declare-fun f () Bool)
(declare-fun out () FF0)
(declare-fun _89 () FF0)
(declare-fun _86 () FF0)
(declare-fun _88 () FF0)
(declare-fun _16 () FF0)
(declare-fun _15 () FF0)
(declare-fun _87 () FF0)
(declare-fun _3 () FF0)
(declare-fun _24 () FF0)
(declare-fun _4 () FF0)
(declare-fun _85 () FF0)
(declare-fun _78 () FF0)
(declare-fun _83 () FF0)
(declare-fun _82 () FF0)
(declare-fun _81 () FF0)
(declare-fun _80 () FF0)
(declare-fun _49 () FF0)
(declare-fun _5 () FF0)
(declare-fun _68 () FF0)
(declare-fun _67 () FF0)
(declare-fun _77 () FF0)
(declare-fun _70 () FF0)
(declare-fun _76 () FF0)
(declare-fun _75 () FF0)
(declare-fun _10 () FF0)
(declare-fun _74 () FF0)
(declare-fun _73 () FF0)
(declare-fun _72 () FF0)
(declare-fun _63 () FF0)
(declare-fun _42 () FF0)
(declare-fun _2 () FF0)
(declare-fun _38 () FF0)
(declare-fun _62 () FF0)
(declare-fun _61 () FF0)
(declare-fun _60 () FF0)
(declare-fun _1 () FF0)
(declare-fun _59 () FF0)
(declare-fun _58 () FF0)
(declare-fun _54 () FF0)
(declare-fun _57 () FF0)
(declare-fun _29 () FF0)
(declare-fun _28 () FF0)
(declare-fun _56 () FF0)
(declare-fun _20 () FF0)
(declare-fun _55 () FF0)
(declare-fun _51 () FF0)
(declare-fun _53 () FF0)
(declare-fun _50 () FF0)
(declare-fun _52 () FF0)
(declare-fun _19 () FF0)
(declare-fun _47 () FF0)
(declare-fun _46 () FF0)
(declare-fun _35 () FF0)
(declare-fun _34 () FF0)
(declare-fun _0 () FF0)
(declare-fun _41 () FF0)
(declare-fun _40 () FF0)
(declare-fun _39 () FF0)
(declare-fun _37 () FF0)
(declare-fun _23 () FF0)
(declare-fun _22 () FF0)
(declare-fun _18 () FF0)
(assert 
  (let ((let0 e))
  (let ((let1 (not let0)))
  (let ((let2 (not let1)))
  (let ((let3 (not let2)))
  (let ((let4 c))
  (let ((let5 (not let4)))
  (let ((let6 (or let0 let4)))
  (let ((let7 (not let6)))
  (let ((let8 d))
  (let ((let9 a))
  (let ((let10 b))
  (let ((let11 (ite let10 let9 let8)))
  (let ((let12 (or let9 let4 let11)))
  (let ((let13 (= let12 let7)))
  (let ((let14 (or let1 let6 let13 let1)))
  (let ((let15 f))
  (let ((let16 (ite let15 let1 let10)))
  (let ((let17 (ite let16 let15 let11)))
  (let ((let18 (or let8 let17 let14)))
  (let ((let19 (and let12 let18 let8 let13 let5)))
  (let ((let20 (ite let9 let10 let17)))
  (let ((let21 (=> let20 let17)))
  (let ((let22 (=> let18 let20)))
  (let ((let23 (=> let12 let19)))
  (let ((let24 (or let23 let16 let5 let22)))
  (let ((let25 (and let23 let23 let13 let16 let24 let21 let10 let19 let2 let18)))
  (let ((let26 (ite let4 let25 let19)))
  (let ((let27 (= let7 let25)))
  (let ((let28 (and let21 let7 let2 let2 let7)))
  (let ((let29 (and let27 let28 let27 let26)))
  (let ((let30 (not let29)))
  (let ((let31 (or let15 let21 let1 let14)))
  (let ((let32 (= let31 let14)))
  (let ((let33 (and let32 let30 let3)))
  (let ((let34 (and let14 let8 let11)))
  (let ((let35 (and let34 let33)))
  (let ((let36 out))
  (let ((let37 (as ff1 FF0)))
  (let ((let38 (= let37 let36)))
  (let ((let39 (= let38 let35)))
  (let ((let40 (as ff0 FF0)))
  (let ((let41 (= let40 let36)))
  (let ((let42 (or let38 let41)))
  (let ((let43 (and let42 let39)))
  (let ((let44 _89))
  (let ((let45 (= let44 let36)))
  (let ((let46 _86))
  (let ((let47 _88))
  (let ((let48 (ff.mul let47 let46)))
  (let ((let49 (= let48 let44)))
  (let ((let50 _16))
  (let ((let51 _15))
  (let ((let52 (ff.add let51 let50)))
  (let ((let53 _87))
  (let ((let54 (ff.mul let53 let52)))
  (let ((let55 (= let54 let47)))
  (let ((let56 _3))
  (let ((let57 _24))
  (let ((let58 (ff.mul let57 let56)))
  (let ((let59 (= let58 let53)))
  (let ((let60 (as ff52435875175126190479447740508185965837690552500527637822603658699938581184512 FF0)))
  (let ((let61 _4))
  (let ((let62 (ff.mul let61 let60)))
  (let ((let63 (ff.add let62 let37)))
  (let ((let64 _85))
  (let ((let65 (ff.mul let64 let63)))
  (let ((let66 (= let65 let46)))
  (let ((let67 _78))
  (let ((let68 (ff.mul let67 let60)))
  (let ((let69 (ff.add let68 let37)))
  (let ((let70 _83))
  (let ((let71 (ff.mul let70 let60)))
  (let ((let72 (ff.add let71 let37)))
  (let ((let73 (ff.mul let72 let69)))
  (let ((let74 (= let73 let64)))
  (let ((let75 _82))
  (let ((let76 (ff.mul let57 let60)))
  (let ((let77 (ff.add let76 let75)))
  (let ((let78 (ff.mul let77 let77)))
  (let ((let79 (= let78 let70)))
  (let ((let80 (ff.mul let75 let60)))
  (let ((let81 _81))
  (let ((let82 (ff.add let57 let81 let80)))
  (let ((let83 (ff.mul let81 let57)))
  (let ((let84 (= let83 let82)))
  (let ((let85 (ff.mul let81 let60)))
  (let ((let86 _80))
  (let ((let87 (ff.add let62 let86 let85 let37)))
  (let ((let88 (ff.mul let86 let63)))
  (let ((let89 (= let88 let87)))
  (let ((let90 (ff.mul let86 let60)))
  (let ((let91 _49))
  (let ((let92 _5))
  (let ((let93 (ff.add let92 let91 let90)))
  (let ((let94 (ff.mul let92 let91)))
  (let ((let95 (= let94 let93)))
  (let ((let96 _68))
  (let ((let97 _67))
  (let ((let98 (ff.add let97 let96)))
  (let ((let99 _77))
  (let ((let100 (ff.mul let99 let98)))
  (let ((let101 (= let100 let67)))
  (let ((let102 _70))
  (let ((let103 (ff.mul let102 let60)))
  (let ((let104 (ff.add let103 let37)))
  (let ((let105 _76))
  (let ((let106 (ff.mul let105 let104)))
  (let ((let107 (= let106 let99)))
  (let ((let108 _75))
  (let ((let109 (ff.mul let104 let108)))
  (let ((let110 (= let109 let105)))
  (let ((let111 _10))
  (let ((let112 (ff.mul let111 let60)))
  (let ((let113 (ff.add let112 let37)))
  (let ((let114 _74))
  (let ((let115 (ff.mul let114 let113)))
  (let ((let116 (= let115 let108)))
  (let ((let117 _73))
  (let ((let118 (ff.mul let117 let61)))
  (let ((let119 (= let118 let114)))
  (let ((let120 _72))
  (let ((let121 (ff.mul let120 let61)))
  (let ((let122 (= let121 let117)))
  (let ((let123 (ff.mul let91 let113)))
  (let ((let124 (= let123 let120)))
  (let ((let125 _63))
  (let ((let126 (ff.mul let125 let60)))
  (let ((let127 (ff.add let112 let126 let37)))
  (let ((let128 (ff.mul let127 let127)))
  (let ((let129 (= let128 let102)))
  (let ((let130 _42))
  (let ((let131 _2))
  (let ((let132 (ff.mul let131 let60)))
  (let ((let133 (ff.add let132 let37)))
  (let ((let134 (ff.mul let133 let130)))
  (let ((let135 (= let134 let96)))
  (let ((let136 (ff.mul let131 let125)))
  (let ((let137 (= let136 let97)))
  (let ((let138 _38))
  (let ((let139 _62))
  (let ((let140 (ff.mul let139 let138)))
  (let ((let141 (= let140 let125)))
  (let ((let142 _61))
  (let ((let143 (ff.mul let142 let61)))
  (let ((let144 (= let143 let139)))
  (let ((let145 _60))
  (let ((let146 (ff.mul let145 let130)))
  (let ((let147 (= let146 let142)))
  (let ((let148 _1))
  (let ((let149 _59))
  (let ((let150 (ff.mul let149 let148)))
  (let ((let151 (= let150 let145)))
  (let ((let152 _58))
  (let ((let153 (ff.mul let152 let91)))
  (let ((let154 (= let153 let149)))
  (let ((let155 _54))
  (let ((let156 _57))
  (let ((let157 (ff.mul let156 let155)))
  (let ((let158 (= let157 let152)))
  (let ((let159 _29))
  (let ((let160 _28))
  (let ((let161 (ff.add let160 let159)))
  (let ((let162 _56))
  (let ((let163 (ff.mul let162 let161)))
  (let ((let164 (= let163 let156)))
  (let ((let165 _20))
  (let ((let166 (ff.mul let165 let60)))
  (let ((let167 (ff.add let166 let37)))
  (let ((let168 _55))
  (let ((let169 (ff.mul let168 let167)))
  (let ((let170 (= let169 let162)))
  (let ((let171 _51))
  (let ((let172 (ff.mul let171 let171)))
  (let ((let173 (= let172 let168)))
  (let ((let174 (ff.mul let155 let60)))
  (let ((let175 _53))
  (let ((let176 _50))
  (let ((let177 (ff.add let176 let175 let174)))
  (let ((let178 (ff.mul let175 let176)))
  (let ((let179 (= let178 let177)))
  (let ((let180 (ff.mul let175 let60)))
  (let ((let181 _52))
  (let ((let182 (ff.add let132 let181 let180 let37)))
  (let ((let183 (ff.mul let181 let133)))
  (let ((let184 (= let183 let182)))
  (let ((let185 (ff.mul let181 let60)))
  (let ((let186 (ff.add let160 let159 let171 let185)))
  (let ((let187 (ff.mul let171 let161)))
  (let ((let188 (= let187 let186)))
  (let ((let189 (ff.mul let171 let60)))
  (let ((let190 _19))
  (let ((let191 (ff.mul let190 let60)))
  (let ((let192 (ff.add let191 let130 let189 let37)))
  (let ((let193 (ff.add let191 let37)))
  (let ((let194 (ff.mul let193 let130)))
  (let ((let195 (= let194 let192)))
  (let ((let196 (ff.mul let176 let60)))
  (let ((let197 _47))
  (let ((let198 _46))
  (let ((let199 (ff.mul let138 let60)))
  (let ((let200 (ff.add let199 let198 let197 let196 let37)))
  (let ((let201 (ff.add let198 let197)))
  (let ((let202 (ff.add let199 let37)))
  (let ((let203 (ff.mul let202 let201)))
  (let ((let204 (= let203 let200)))
  (let ((let205 (ff.mul let91 let60)))
  (let ((let206 (ff.mul let197 let60)))
  (let ((let207 (ff.mul let198 let60)))
  (let ((let208 _35))
  (let ((let209 _34))
  (let ((let210 (ff.add let209 let208 let207 let206 let205 let37)))
  (let ((let211 (ff.add let209 let208)))
  (let ((let212 (ff.add let207 let206 let37)))
  (let ((let213 (ff.mul let212 let211)))
  (let ((let214 (= let213 let210)))
  (let ((let215 _0))
  (let ((let216 (ff.mul let215 let60)))
  (let ((let217 (ff.add let216 let37)))
  (let ((let218 (ff.mul let217 let211)))
  (let ((let219 (= let218 let197)))
  (let ((let220 (ff.mul let215 let148)))
  (let ((let221 (= let220 let198)))
  (let ((let222 _41))
  (let ((let223 (ff.mul let222 let133)))
  (let ((let224 (= let223 let130)))
  (let ((let225 _40))
  (let ((let226 (ff.mul let225 let167)))
  (let ((let227 (= let226 let222)))
  (let ((let228 _39))
  (let ((let229 (ff.mul let228 let56)))
  (let ((let230 (= let229 let225)))
  (let ((let231 (ff.mul let190 let138)))
  (let ((let232 (= let231 let228)))
  (let ((let233 _37))
  (let ((let234 (ff.add let57 let233 let199)))
  (let ((let235 (ff.mul let233 let57)))
  (let ((let236 (= let235 let234)))
  (let ((let237 (ff.mul let233 let60)))
  (let ((let238 (ff.add let56 let209 let208 let237)))
  (let ((let239 (ff.mul let56 let211)))
  (let ((let240 (= let239 let238)))
  (let ((let241 (ff.mul let159 let60)))
  (let ((let242 (ff.mul let160 let60)))
  (let ((let243 (ff.add let242 let241 let37)))
  (let ((let244 (ff.mul let243 let52)))
  (let ((let245 (= let244 let208)))
  (let ((let246 (ff.mul let161 let92)))
  (let ((let247 (= let246 let209)))
  (let ((let248 (ff.mul let92 let60)))
  (let ((let249 (ff.add let248 let37)))
  (let ((let250 (ff.mul let249 let148)))
  (let ((let251 (= let250 let159)))
  (let ((let252 (ff.mul let92 let63)))
  (let ((let253 (= let252 let160)))
  (let ((let254 _23))
  (let ((let255 (ff.add let62 let254 let76 let37)))
  (let ((let256 (ff.mul let254 let63)))
  (let ((let257 (= let256 let255)))
  (let ((let258 (ff.mul let254 let60)))
  (let ((let259 _22))
  (let ((let260 (ff.add let166 let259 let258 let37)))
  (let ((let261 (ff.mul let259 let167)))
  (let ((let262 (= let261 let260)))
  (let ((let263 (ff.mul let259 let60)))
  (let ((let264 (ff.add let62 let111 let263 let37)))
  (let ((let265 (ff.mul let63 let111)))
  (let ((let266 (= let265 let264)))
  (let ((let267 (ff.add let111 let190 let60)))
  (let ((let268 (ff.mul let267 let267)))
  (let ((let269 (= let268 let165)))
  (let ((let270 _18))
  (let ((let271 (ff.add let51 let50 let270 let191)))
  (let ((let272 (ff.mul let270 let52)))
  (let ((let273 (= let272 let271)))
  (let ((let274 (ff.mul let270 let60)))
  (let ((let275 (ff.add let215 let131 let274)))
  (let ((let276 (ff.mul let215 let131)))
  (let ((let277 (= let276 let275)))
  (let ((let278 (ff.mul let148 let60)))
  (let ((let279 (ff.add let278 let37)))
  (let ((let280 (ff.mul let279 let56)))
  (let ((let281 (= let280 let50)))
  (let ((let282 (ff.mul let148 let215)))
  (let ((let283 (= let282 let51)))
  (let ((let284 (ff.add let131 let61 let112)))
  (let ((let285 (ff.mul let61 let131)))
  (let ((let286 (= let285 let284)))
  (let ((let287 (ff.mul let92 let92)))
  (let ((let288 (= let287 let92)))
  (let ((let289 (ff.mul let61 let61)))
  (let ((let290 (= let289 let61)))
  (let ((let291 (ff.mul let56 let56)))
  (let ((let292 (= let291 let56)))
  (let ((let293 (ff.mul let131 let131)))
  (let ((let294 (= let293 let131)))
  (let ((let295 (ff.mul let148 let148)))
  (let ((let296 (= let295 let148)))
  (let ((let297 (ff.mul let215 let215)))
  (let ((let298 (= let297 let215)))
  (let ((let299 (and let298 let296 let294 let292 let290 let288 let286 let283 let281 let277 let273 let269 let266 let262 let257 let253 let251 let247 let245 let240 let236 let232 let230 let227 let224 let221 let219 let214 let204 let195 let188 let184 let179 let173 let170 let164 let158 let154 let151 let147 let144 let141 let137 let135 let129 let124 let122 let119 let116 let110 let107 let101 let95 let89 let84 let79 let74 let66 let59 let55 let49 let45)))
  (let ((let300 (ite let4 let37 let40)))
  (let ((let301 (= let131 let300)))
  (let ((let302 (ite let10 let37 let40)))
  (let ((let303 (= let148 let302)))
  (let ((let304 (ite let8 let37 let40)))
  (let ((let305 (= let56 let304)))
  (let ((let306 (ite let9 let37 let40)))
  (let ((let307 (= let215 let306)))
  (let ((let308 (ite let0 let37 let40)))
  (let ((let309 (= let61 let308)))
  (let ((let310 (ite let15 let37 let40)))
  (let ((let311 (= let92 let310)))
  (let ((let312 (and let311 let309 let307 let305 let303 let301)))
  (let ((let313 (and let312 let299)))
  (let ((let314 (=> let313 let43)))
  (let ((let315 (not let314)))
  let315
))))))))))))))))))))))))))))))))))))))))))))))))))))))))))))))))))))))))))))))))))))))))))))))))))))))))))))))))))))))))))))))))))))))))))))))))))))))))))))))))))))))))))))))))))))))))))))))))))))))))))))))))))))))))))))))))))))))))))))))))))))))))))))))))))))))))))))))))))))))))))))))))))))))))))))))))))))))))))))
)
(check-sat)
